#== Basis set ==#
 ecut 10.0
 ecutsm 0.5

#== k-point grid ==#
 kptopt 1
 ngkpt 4 4 4
 nshiftk 1
 shiftk    0.0    0.0    0.0

#== SCF procedure ==#
 iscf 5
 nstep 30
 tolvrs 1e-10

#== Unit cell ==#
 acell    1.0    1.0    1.0
 natom 2
 ntypat 2
 rprim
    0.000000000000    3.851503972618    3.851503972618
    3.851503972618    0.000000000000    3.851503972618
    3.851503972618    3.851503972618    0.000000000000
 typat 1 2
 xred
    0.0000000000    0.0000000000    0.0000000000
    0.5000000000    0.5000000000    0.5000000000
 znucl 3 9

