 ndtset 3
 jdtset 1 2 3

#====== Dataset 1 =============================================================#
 irdden1 1
 iscf1 -2

#====== Dataset 2 =============================================================#
 irdden2 1
 iscf2 -2
 nqpt2 1
 qpt2    0.0125000000    0.0000000000    0.0000000000

#====== Dataset 3 =============================================================#
 ddb_ngqpt3 4 4 4
 ddb_shiftq3    0.0    0.0    0.0
 eph_task3 2
 irdden3 1
 irdwfk3 1
 irdwfq3 1
 iscf3 -2
 nqpt3 1
 optdriver3 7
 prtphdos3 0
 qpt3    0.0125000000    0.0000000000    0.0000000000
 qptopt3 0

#====== Common variables ======================================================#

#====== Basis set =====================#
 ecut 10.0
 ecutsm 0.5

#====== Bands =========================#
 nband 14

#====== k-point grid ==================#
 kptopt 3
 ngkpt 2 2 2
 nshiftk 1
 shiftk    0.0    0.0    0.0

#====== SCF procedure =================#
 tolwfr 1e-18

#====== Unit cell =====================#
 acell    1.0    1.0    1.0
 natom 2
 ntypat 2
 rprim
    0.000000000000    3.851503972618    3.851503972618
    3.851503972618    0.000000000000    3.851503972618
    3.851503972618    3.851503972618    0.000000000000
 typat 1 2
 xred
    0.0000000000    0.0000000000    0.0000000000
    0.5000000000    0.5000000000    0.5000000000
 znucl 3 9

#====== Unsorted ======================#
 istwfk *1
 nnsclo 40

