 ndtset 3
 jdtset 1 2 3

#====== Dataset 1 =============================================================#
 irdden1 1
 iscf1 -2

#====== Dataset 2 =============================================================#
 irdden2 1
 iscf2 -2
 nqpt2 1
 qpt2    0.2500000000    0.0000000000    0.0000000000

#====== Dataset 3 =============================================================#
 irdden3 1
 irdwfk3 1
 irdwfq3 1
 iscf3 7
 nqpt3 1
 nstep3 60
 qpt3    0.2500000000    0.0000000000    0.0000000000
 qptopt3 0
 rfatpol3 1 2
 rfdir3 1 1 1
 rfphon3 1
 tolvrs3 1e-16

#====== Common variables ======================================================#

#====== Basis set =====================#
 ecut 10.0
 ecutsm 0.5

#====== Bands =========================#
 nband 10

#====== k-point grid ==================#
 kptopt 3
 ngkpt 4 4 4
 nshiftk 1
 shiftk    0.0    0.0    0.0

#====== SCF procedure =================#
 tolwfr 1e-18

#====== Unit cell =====================#
 acell    1.0    1.0    1.0
 natom 2
 ntypat 2
 rprim
    0.000000000000    3.851503972618    3.851503972618
    3.851503972618    0.000000000000    3.851503972618
    3.851503972618    3.851503972618    0.000000000000
 typat 1 2
 xred
    0.0000000000    0.0000000000    0.0000000000
    0.5000000000    0.5000000000    0.5000000000
 znucl 3 9

#====== Symmetries ====================#
 nsym 1

#====== Unsorted ======================#
 nnsclo 40

